c FILE: queen9_9.col
c Translated from Stanford GraphBase File: queen9_9.sgb
c Stanford GraphBase ID: gunion(board(9,9,0,0,-1,0,0),board(9,9,0,0,-2,0,0),0,0)
p edge 81 2112
e 2 1
e 3 1
e 3 2
e 4 1
e 4 2
e 4 3
e 5 1
e 5 2
e 5 3
e 5 4
e 6 1
e 6 2
e 6 3
e 6 4
e 6 5
e 7 1
e 7 2
e 7 3
e 7 4
e 7 5
e 7 6
e 8 1
e 8 2
e 8 3
e 8 4
e 8 5
e 8 6
e 8 7
e 9 1
e 9 2
e 9 3
e 9 4
e 9 5
e 9 6
e 9 7
e 9 8
e 10 1
e 10 2
e 11 1
e 11 2
e 11 3
e 11 10
e 12 2
e 12 3
e 12 4
e 12 10
e 12 11
e 13 3
e 13 4
e 13 5
e 13 10
e 13 11
e 13 12
e 14 4
e 14 5
e 14 6
e 14 10
e 14 11
e 14 12
e 14 13
e 15 5
e 15 6
e 15 7
e 15 10
e 15 11
e 15 12
e 15 13
e 15 14
e 16 6
e 16 7
e 16 8
e 16 10
e 16 11
e 16 12
e 16 13
e 16 14
e 16 15
e 17 7
e 17 8
e 17 9
e 17 10
e 17 11
e 17 12
e 17 13
e 17 14
e 17 15
e 17 16
e 18 8
e 18 9
e 18 10
e 18 11
e 18 12
e 18 13
e 18 14
e 18 15
e 18 16
e 18 17
e 19 1
e 19 3
e 19 10
e 19 11
e 20 2
e 20 4
e 20 10
e 20 11
e 20 12
e 20 19
e 21 1
e 21 3
e 21 5
e 21 11
e 21 12
e 21 13
e 21 19
e 21 20
e 22 2
e 22 4
e 22 6
e 22 12
e 22 13
e 22 14
e 22 19
e 22 20
e 22 21
e 23 3
e 23 5
e 23 7
e 23 13
e 23 14
e 23 15
e 23 19
e 23 20
e 23 21
e 23 22
e 24 4
e 24 6
e 24 8
e 24 14
e 24 15
e 24 16
e 24 19
e 24 20
e 24 21
e 24 22
e 24 23
e 25 5
e 25 7
e 25 9
e 25 15
e 25 16
e 25 17
e 25 19
e 25 20
e 25 21
e 25 22
e 25 23
e 25 24
e 26 6
e 26 8
e 26 16
e 26 17
e 26 18
e 26 19
e 26 20
e 26 21
e 26 22
e 26 23
e 26 24
e 26 25
e 27 7
e 27 9
e 27 17
e 27 18
e 27 19
e 27 20
e 27 21
e 27 22
e 27 23
e 27 24
e 27 25
e 27 26
e 28 1
e 28 4
e 28 10
e 28 12
e 28 19
e 28 20
e 29 2
e 29 5
e 29 11
e 29 13
e 29 19
e 29 20
e 29 21
e 29 28
e 30 3
e 30 6
e 30 10
e 30 12
e 30 14
e 30 20
e 30 21
e 30 22
e 30 28
e 30 29
e 31 1
e 31 4
e 31 7
e 31 11
e 31 13
e 31 15
e 31 21
e 31 22
e 31 23
e 31 28
e 31 29
e 31 30
e 32 2
e 32 5
e 32 8
e 32 12
e 32 14
e 32 16
e 32 22
e 32 23
e 32 24
e 32 28
e 32 29
e 32 30
e 32 31
e 33 3
e 33 6
e 33 9
e 33 13
e 33 15
e 33 17
e 33 23
e 33 24
e 33 25
e 33 28
e 33 29
e 33 30
e 33 31
e 33 32
e 34 4
e 34 7
e 34 14
e 34 16
e 34 18
e 34 24
e 34 25
e 34 26
e 34 28
e 34 29
e 34 30
e 34 31
e 34 32
e 34 33
e 35 5
e 35 8
e 35 15
e 35 17
e 35 25
e 35 26
e 35 27
e 35 28
e 35 29
e 35 30
e 35 31
e 35 32
e 35 33
e 35 34
e 36 6
e 36 9
e 36 16
e 36 18
e 36 26
e 36 27
e 36 28
e 36 29
e 36 30
e 36 31
e 36 32
e 36 33
e 36 34
e 36 35
e 37 1
e 37 5
e 37 10
e 37 13
e 37 19
e 37 21
e 37 28
e 37 29
e 38 2
e 38 6
e 38 11
e 38 14
e 38 20
e 38 22
e 38 28
e 38 29
e 38 30
e 38 37
e 39 3
e 39 7
e 39 12
e 39 15
e 39 19
e 39 21
e 39 23
e 39 29
e 39 30
e 39 31
e 39 37
e 39 38
e 40 4
e 40 8
e 40 10
e 40 13
e 40 16
e 40 20
e 40 22
e 40 24
e 40 30
e 40 31
e 40 32
e 40 37
e 40 38
e 40 39
e 41 1
e 41 5
e 41 9
e 41 11
e 41 14
e 41 17
e 41 21
e 41 23
e 41 25
e 41 31
e 41 32
e 41 33
e 41 37
e 41 38
e 41 39
e 41 40
e 42 2
e 42 6
e 42 12
e 42 15
e 42 18
e 42 22
e 42 24
e 42 26
e 42 32
e 42 33
e 42 34
e 42 37
e 42 38
e 42 39
e 42 40
e 42 41
e 43 3
e 43 7
e 43 13
e 43 16
e 43 23
e 43 25
e 43 27
e 43 33
e 43 34
e 43 35
e 43 37
e 43 38
e 43 39
e 43 40
e 43 41
e 43 42
e 44 4
e 44 8
e 44 14
e 44 17
e 44 24
e 44 26
e 44 34
e 44 35
e 44 36
e 44 37
e 44 38
e 44 39
e 44 40
e 44 41
e 44 42
e 44 43
e 45 5
e 45 9
e 45 15
e 45 18
e 45 25
e 45 27
e 45 35
e 45 36
e 45 37
e 45 38
e 45 39
e 45 40
e 45 41
e 45 42
e 45 43
e 45 44
e 46 1
e 46 6
e 46 10
e 46 14
e 46 19
e 46 22
e 46 28
e 46 30
e 46 37
e 46 38
e 47 2
e 47 7
e 47 11
e 47 15
e 47 20
e 47 23
e 47 29
e 47 31
e 47 37
e 47 38
e 47 39
e 47 46
e 48 3
e 48 8
e 48 12
e 48 16
e 48 21
e 48 24
e 48 28
e 48 30
e 48 32
e 48 38
e 48 39
e 48 40
e 48 46
e 48 47
e 49 4
e 49 9
e 49 13
e 49 17
e 49 19
e 49 22
e 49 25
e 49 29
e 49 31
e 49 33
e 49 39
e 49 40
e 49 41
e 49 46
e 49 47
e 49 48
e 50 5
e 50 10
e 50 14
e 50 18
e 50 20
e 50 23
e 50 26
e 50 30
e 50 32
e 50 34
e 50 40
e 50 41
e 50 42
e 50 46
e 50 47
e 50 48
e 50 49
e 51 1
e 51 6
e 51 11
e 51 15
e 51 21
e 51 24
e 51 27
e 51 31
e 51 33
e 51 35
e 51 41
e 51 42
e 51 43
e 51 46
e 51 47
e 51 48
e 51 49
e 51 50
e 52 2
e 52 7
e 52 12
e 52 16
e 52 22
e 52 25
e 52 32
e 52 34
e 52 36
e 52 42
e 52 43
e 52 44
e 52 46
e 52 47
e 52 48
e 52 49
e 52 50
e 52 51
e 53 3
e 53 8
e 53 13
e 53 17
e 53 23
e 53 26
e 53 33
e 53 35
e 53 43
e 53 44
e 53 45
e 53 46
e 53 47
e 53 48
e 53 49
e 53 50
e 53 51
e 53 52
e 54 4
e 54 9
e 54 14
e 54 18
e 54 24
e 54 27
e 54 34
e 54 36
e 54 44
e 54 45
e 54 46
e 54 47
e 54 48
e 54 49
e 54 50
e 54 51
e 54 52
e 54 53
e 55 1
e 55 7
e 55 10
e 55 15
e 55 19
e 55 23
e 55 28
e 55 31
e 55 37
e 55 39
e 55 46
e 55 47
e 56 2
e 56 8
e 56 11
e 56 16
e 56 20
e 56 24
e 56 29
e 56 32
e 56 38
e 56 40
e 56 46
e 56 47
e 56 48
e 56 55
e 57 3
e 57 9
e 57 12
e 57 17
e 57 21
e 57 25
e 57 30
e 57 33
e 57 37
e 57 39
e 57 41
e 57 47
e 57 48
e 57 49
e 57 55
e 57 56
e 58 4
e 58 13
e 58 18
e 58 22
e 58 26
e 58 28
e 58 31
e 58 34
e 58 38
e 58 40
e 58 42
e 58 48
e 58 49
e 58 50
e 58 55
e 58 56
e 58 57
e 59 5
e 59 14
e 59 19
e 59 23
e 59 27
e 59 29
e 59 32
e 59 35
e 59 39
e 59 41
e 59 43
e 59 49
e 59 50
e 59 51
e 59 55
e 59 56
e 59 57
e 59 58
e 60 6
e 60 10
e 60 15
e 60 20
e 60 24
e 60 30
e 60 33
e 60 36
e 60 40
e 60 42
e 60 44
e 60 50
e 60 51
e 60 52
e 60 55
e 60 56
e 60 57
e 60 58
e 60 59
e 61 1
e 61 7
e 61 11
e 61 16
e 61 21
e 61 25
e 61 31
e 61 34
e 61 41
e 61 43
e 61 45
e 61 51
e 61 52
e 61 53
e 61 55
e 61 56
e 61 57
e 61 58
e 61 59
e 61 60
e 62 2
e 62 8
e 62 12
e 62 17
e 62 22
e 62 26
e 62 32
e 62 35
e 62 42
e 62 44
e 62 52
e 62 53
e 62 54
e 62 55
e 62 56
e 62 57
e 62 58
e 62 59
e 62 60
e 62 61
e 63 3
e 63 9
e 63 13
e 63 18
e 63 23
e 63 27
e 63 33
e 63 36
e 63 43
e 63 45
e 63 53
e 63 54
e 63 55
e 63 56
e 63 57
e 63 58
e 63 59
e 63 60
e 63 61
e 63 62
e 64 1
e 64 8
e 64 10
e 64 16
e 64 19
e 64 24
e 64 28
e 64 32
e 64 37
e 64 40
e 64 46
e 64 48
e 64 55
e 64 56
e 65 2
e 65 9
e 65 11
e 65 17
e 65 20
e 65 25
e 65 29
e 65 33
e 65 38
e 65 41
e 65 47
e 65 49
e 65 55
e 65 56
e 65 57
e 65 64
e 66 3
e 66 12
e 66 18
e 66 21
e 66 26
e 66 30
e 66 34
e 66 39
e 66 42
e 66 46
e 66 48
e 66 50
e 66 56
e 66 57
e 66 58
e 66 64
e 66 65
e 67 4
e 67 13
e 67 22
e 67 27
e 67 31
e 67 35
e 67 37
e 67 40
e 67 43
e 67 47
e 67 49
e 67 51
e 67 57
e 67 58
e 67 59
e 67 64
e 67 65
e 67 66
e 68 5
e 68 14
e 68 23
e 68 28
e 68 32
e 68 36
e 68 38
e 68 41
e 68 44
e 68 48
e 68 50
e 68 52
e 68 58
e 68 59
e 68 60
e 68 64
e 68 65
e 68 66
e 68 67
e 69 6
e 69 15
e 69 19
e 69 24
e 69 29
e 69 33
e 69 39
e 69 42
e 69 45
e 69 49
e 69 51
e 69 53
e 69 59
e 69 60
e 69 61
e 69 64
e 69 65
e 69 66
e 69 67
e 69 68
e 70 7
e 70 10
e 70 16
e 70 20
e 70 25
e 70 30
e 70 34
e 70 40
e 70 43
e 70 50
e 70 52
e 70 54
e 70 60
e 70 61
e 70 62
e 70 64
e 70 65
e 70 66
e 70 67
e 70 68
e 70 69
e 71 1
e 71 8
e 71 11
e 71 17
e 71 21
e 71 26
e 71 31
e 71 35
e 71 41
e 71 44
e 71 51
e 71 53
e 71 61
e 71 62
e 71 63
e 71 64
e 71 65
e 71 66
e 71 67
e 71 68
e 71 69
e 71 70
e 72 2
e 72 9
e 72 12
e 72 18
e 72 22
e 72 27
e 72 32
e 72 36
e 72 42
e 72 45
e 72 52
e 72 54
e 72 62
e 72 63
e 72 64
e 72 65
e 72 66
e 72 67
e 72 68
e 72 69
e 72 70
e 72 71
e 73 1
e 73 9
e 73 10
e 73 17
e 73 19
e 73 25
e 73 28
e 73 33
e 73 37
e 73 41
e 73 46
e 73 49
e 73 55
e 73 57
e 73 64
e 73 65
e 74 2
e 74 11
e 74 18
e 74 20
e 74 26
e 74 29
e 74 34
e 74 38
e 74 42
e 74 47
e 74 50
e 74 56
e 74 58
e 74 64
e 74 65
e 74 66
e 74 73
e 75 3
e 75 12
e 75 21
e 75 27
e 75 30
e 75 35
e 75 39
e 75 43
e 75 48
e 75 51
e 75 55
e 75 57
e 75 59
e 75 65
e 75 66
e 75 67
e 75 73
e 75 74
e 76 4
e 76 13
e 76 22
e 76 31
e 76 36
e 76 40
e 76 44
e 76 46
e 76 49
e 76 52
e 76 56
e 76 58
e 76 60
e 76 66
e 76 67
e 76 68
e 76 73
e 76 74
e 76 75
e 77 5
e 77 14
e 77 23
e 77 32
e 77 37
e 77 41
e 77 45
e 77 47
e 77 50
e 77 53
e 77 57
e 77 59
e 77 61
e 77 67
e 77 68
e 77 69
e 77 73
e 77 74
e 77 75
e 77 76
e 78 6
e 78 15
e 78 24
e 78 28
e 78 33
e 78 38
e 78 42
e 78 48
e 78 51
e 78 54
e 78 58
e 78 60
e 78 62
e 78 68
e 78 69
e 78 70
e 78 73
e 78 74
e 78 75
e 78 76
e 78 77
e 79 7
e 79 16
e 79 19
e 79 25
e 79 29
e 79 34
e 79 39
e 79 43
e 79 49
e 79 52
e 79 59
e 79 61
e 79 63
e 79 69
e 79 70
e 79 71
e 79 73
e 79 74
e 79 75
e 79 76
e 79 77
e 79 78
e 80 8
e 80 10
e 80 17
e 80 20
e 80 26
e 80 30
e 80 35
e 80 40
e 80 44
e 80 50
e 80 53
e 80 60
e 80 62
e 80 70
e 80 71
e 80 72
e 80 73
e 80 74
e 80 75
e 80 76
e 80 77
e 80 78
e 80 79
e 81 1
e 81 9
e 81 11
e 81 18
e 81 21
e 81 27
e 81 31
e 81 36
e 81 41
e 81 45
e 81 51
e 81 54
e 81 61
e 81 63
e 81 71
e 81 72
e 81 73
e 81 74
e 81 75
e 81 76
e 81 77
e 81 78
e 81 79
e 81 80
